%SETS
JOBS     = 1..5;
MACHINES = 1..10;
SPEED    = 5;

time        = array3d(JOBS,MACHINES,1..SPEED,[25, 8, 6, 5, 4, 19, 6, 4, 3, 3, 3, 1, 1, 1, 1, 18, 6, 4, 3, 3, 5, 1, 1, 1, 1, 39, 13, 9, 8, 7, 49, 17, 12, 10, 8, 17, 6, 4, 3, 3, 48, 16, 11, 9, 8, 2, 1, 1, 1, 1, 18, 6, 4, 3, 3, 1, 1, 1, 1, 1, 14, 4, 3, 2, 2, 2, 1, 1, 1, 1, 3, 1, 1, 1, 1, 23, 8, 5, 4, 4, 6, 2, 1, 1, 1, 2, 1, 1, 1, 1, 6, 2, 1, 1, 1, 11, 3, 2, 2, 2, 16, 5, 3, 3, 2, 5, 2, 1, 1, 1, 26, 9, 6, 5, 4, 17, 5, 4, 3, 3, 18, 6, 4, 3, 3, 12, 4, 3, 2, 2, 40, 14, 10, 8, 7, 22, 7, 5, 4, 4, 4, 1, 1, 1, 1, 31, 10, 7, 6, 5, 86, 29, 21, 17, 15, 17, 6, 4, 3, 3, 57, 19, 13, 11, 10, 10, 3, 2, 2, 1, 21, 7, 5, 4, 3, 14, 4, 3, 2, 2, 14, 5, 3, 3, 2, 38, 13, 9, 7, 6, 19, 6, 4, 4, 3, 79, 27, 19, 16, 14, 20, 7, 4, 4, 3, 2, 1, 1, 1, 1, 11, 4, 2, 2, 2, 49, 17, 12, 10, 8, 13, 4, 3, 2, 2, 1, 1, 1, 1, 1, 7, 2, 1, 1, 1, 1, 1, 1, 1, 1, 131, 45, 32, 26, 23, 91, 31, 22, 18, 16]);
energy      = array3d(JOBS,MACHINES,1..SPEED,[77, 92, 94, 95, 96, 82, 94, 96, 97, 97, 97, 99, 99, 99, 99, 83, 94, 96, 97, 97, 95, 99, 99, 99, 99, 67, 87, 91, 92, 93, 61, 84, 88, 90, 92, 84, 94, 96, 97, 97, 61, 85, 89, 91, 92, 98, 99, 99, 99, 99, 83, 94, 96, 97, 97, 99, 99, 99, 99, 99, 86, 96, 97, 98, 98, 98, 99, 99, 99, 99, 97, 99, 99, 99, 99, 79, 92, 95, 96, 96, 94, 98, 99, 99, 99, 98, 99, 99, 99, 99, 94, 98, 99, 99, 99, 89, 97, 98, 98, 98, 85, 95, 97, 97, 98, 95, 98, 99, 99, 99, 77, 91, 94, 95, 96, 84, 95, 96, 97, 97, 83, 94, 96, 97, 97, 88, 96, 97, 98, 98, 67, 86, 90, 92, 93, 80, 93, 95, 96, 96, 96, 99, 99, 99, 99, 73, 90, 93, 94, 95, 42, 74, 81, 84, 86, 84, 94, 96, 97, 97, 56, 82, 87, 89, 90, 90, 97, 98, 98, 99, 81, 93, 95, 96, 97, 86, 96, 97, 98, 98, 86, 95, 97, 97, 98, 68, 87, 91, 93, 94, 82, 94, 96, 96, 97, 45, 76, 82, 85, 86, 81, 93, 96, 96, 97, 98, 99, 99, 99, 99, 89, 96, 98, 98, 98, 61, 84, 88, 90, 92, 87, 96, 97, 98, 98, 99, 99, 99, 99, 99, 93, 98, 99, 99, 99, 99, 99, 99, 99, 99, 26, 63, 72, 77, 79, 40, 73, 80, 83, 85]);
precedence  = array2d(JOBS,MACHINES,[8, 3, 1, 9, 0, 6, 4, 2, 7, 5, 9, 0, 7, 3, 5, 6, 4, 2, 8, 1, 9, 2, 4, 5, 3, 6, 0, 8, 1, 7, 4, 8, 5, 1, 2, 7, 0, 3, 6, 9, 7, 4, 2, 9, 6, 5, 0, 1, 8, 3]);
releaseDate = [0, 10, 60, 40, 60];
dueDate     = [73, 29, 115, 121, 210];